NAME : gr96
TYPE : OP
DIMENSION : 96
COST_LIMIT : 27605
ROUTE_NODES : 62
ROUTE_SCORE : 3166
ROUTE_COST : 27562
NODE_SEQUENCE_SECTION
1
32
36
37
38
39
40
41
42
43
49
50
52
53
55
56
57
59
71
72
73
75
74
84
85
86
87
90
89
88
78
77
76
68
67
66
64
61
62
63
27
28
26
22
21
19
18
20
17
16
15
14
13
12
10
9
8
7
6
5
4
2
-1
DEPOT_SECTION
1
-1
EOF
